Problem:    manufatura
Rows:       4
Columns:    2
Non-zeros:  6
Status:     OPTIMAL
Objective:  z = 42840 (MAXimum)

   No.   Row name   St   Activity     Lower bound   Upper bound    Marginal
------ ------------ -- ------------- ------------- ------------- -------------
     1 z            B          42840                             
     2 maquinas[Maq1]
                    NU             3                           3          8160 
     3 maquinas[Maq2]
                    B              3                           4 
     4 maquinas[Maq3]
                    NU             9                           9          2040 

   No. Column name  St   Activity     Lower bound   Upper bound    Marginal
------ ------------ -- ------------- ------------- ------------- -------------
     1 x[Pro1]      B              3             0               
     2 x[Pro2]      B              3             0               

Karush-Kuhn-Tucker optimality conditions:

KKT.PE: max.abs.err = 0.00e+00 on row 0
        max.rel.err = 0.00e+00 on row 0
        High quality

KKT.PB: max.abs.err = 0.00e+00 on row 0
        max.rel.err = 0.00e+00 on row 0
        High quality

KKT.DE: max.abs.err = 4.55e-13 on column 2
        max.rel.err = 5.57e-17 on column 2
        High quality

KKT.DB: max.abs.err = 0.00e+00 on row 0
        max.rel.err = 0.00e+00 on row 0
        High quality

End of output
